203610
175 195 4 183 80 130 68 131 192 46 116 181 174 137 180 199 187 150 198 83 28 54 147 58 104 12 94 182 179 6 21 7 135 155 118 34 132 56 93 16 140 123 41 88 162 151 14 79 177 110 61 44 159 156 72 133 126 52 8 13 36 164 92 73 169 167 11 144 186 78 23 128 20 53 5 171 1 26 17 69 45 119 95 189 35 121 25 67 157 38 29 122 39 120 158 193 166 178 15 185 139 153 57 48 197 145 76 173 125 97 9 142 71 66 74 176 172 98 100 64 149 87 37 85 101 106 60 32 30 47 168 102 148 91 154 103 90 75 0 31 111 65 146 22 82 170 117 109 96 138 165 108 115 81 163 55 188 24 89 33 99 3 2 113 152 141 129 51 143 59 105 191 190 136 107 196 124 27 70 19 112 62 134 42 43 114 40 18 49 84 160 63 10 194 50 77 127 161 184 86 
